%nprocshared=56
%mem=120GB
%chk=s1_opt.chk
#p td(singlet,nstate=10) freq TPSSh/def2svp scrf=solvent=CH2Cl2 empiricaldispersion=gd3bj IOp(3/174=1000000,3/175=2238200,3/177=452900,3/178=4655000) nosymm

test2-s1freq

0  1
Pt          0.48611        -0.37955        -0.01880
C           0.50179         1.52731         0.00671
C          -0.73757         2.24810        -0.00762
C           1.75258         2.22716         0.03275
C          -0.72872         3.63678         0.00335
C           1.76652         3.61547         0.04375
C           0.52420         4.29177         0.02929
H          -1.64834         4.22254        -0.00770
H           2.69554         4.18587         0.06238
H           0.53340         5.38358         0.03786
C           2.50038        -0.03556         0.01938
C           4.75315         0.28761         0.06295
H           5.79587        -0.01618         0.07777
C          -1.52166        -0.00216        -0.04465
C          -3.76911         0.35911        -0.06723
H          -4.81681         0.07297        -0.08234
Cl          0.46787        -2.83936        -0.01991
C           3.92330        -2.08902         0.01428
H           4.48549        -2.40205         0.90663
H           2.93731        -2.57051         0.00775
H           4.48481        -2.37833        -0.88673
C          -2.97831        -2.03137        -0.08394
H          -2.00050        -2.52918        -0.06958
H          -3.56235        -2.33205         0.79866
H          -3.52741        -2.31454        -0.99442
N           2.82399         1.34407         0.04138
N           3.72117        -0.64878         0.03416
N          -2.75273        -0.59463        -0.06500
N          -1.82275         1.38333        -0.03345
C          -3.19754         1.59305        -0.04768
C           4.20188         1.53090         0.06765
H          -3.64505         2.58160        -0.04225
H           4.66582         2.51171         0.08789

