%nprocshared=56
%mem=80GB
%chk=s0_opt.chk
#p opt=calcall TPSSh/def2svp scrf=solvent=CH2Cl2 empiricaldispersion=gd3bj IOp(3/174=1000000,3/175=2238200,3/177=452900,3/178=4655000) nosymm

test-s0opt

0 1
     C            1.40005273133072        2.52269539684381        2.94502441206032
     C            2.74773416857775        2.67306041920306        3.28572072989056
     C            3.42573651315266        1.67698031682378        2.60755446148591
     N            2.49468681640094        1.00922179918257        1.89479203354085
     N            1.27786466410528        1.52054765536079        2.08147731310959
     C            4.86142167749521        1.30796304883497        2.58401960633373
     C            0.21425897682731        3.26334808307712        3.45192625651945
     N            2.73615873215524       -0.11437043554323        1.15797221219492
     C            3.52827163252042        0.02417221696876       -0.01428441138398
     C            4.64387857685321       -0.79581957359444       -0.15998748483006
     C            3.24748543304593        0.96845395212904       -1.00878653931781
     C            5.46779498776054       -0.69608820282453       -1.26187696389891
     C            4.10398572285836        1.06400010394066       -2.09843935081407
     C            5.21390206445682        0.24848878485186       -2.24783238694038
     C            1.84554031897484       -1.23541112002475        1.30187610686324
     C            2.44259331555670       -2.45133956604327        1.60927302523659
     C            0.46059837661056       -1.09851578093769        1.13117460432933
     C            1.65706718681800       -3.58283516236441        1.68834057057729
     C           -0.31532427952472       -2.27812369935300        1.15424689255851
     C            0.30379927574249       -3.50201909877526        1.44229837978151
     C            2.04788776020097        1.86037439817908       -0.94391282189858
     C            6.11071022910364        0.36321406079140       -3.44260487218991
     C           -1.93501697825257        0.00124640431215        0.11538342455209
     C           -2.78683652191513        0.97859938386659       -0.41589255618403
     C           -4.13050460450008        0.74358530706322       -0.66830311304207
     C           -4.62463802825533       -0.52620038342322       -0.43415458604104
     C           -3.80701062187298       -1.52651408098444        0.05157047634269
     C           -2.45855848440192       -1.28163170687754        0.34859674776427
     N           -1.68369177128977       -2.30899009770078        0.87069233847035
     C           -2.34597516018664       -3.55930680460086        1.05961653220979
     C           -2.49282200455187       -4.44540410416560       -0.01254586244676
     C           -2.84288602696345       -3.88137303659437        2.31422139448155
     C           -3.14741027846745       -5.64772509986949        0.21124568783377
     C           -3.49112032992933       -5.08699634347958        2.51810061650252
     C           -3.64347651831486       -5.96994019475464        1.46355260186296
     C           -1.94889275604972       -4.08474134259564       -1.35947863261809
     C           -0.81374363945451        3.77623570605773        0.08199756445781
     C           -1.48032130551566        4.27963657364639       -1.02834720951695
     C           -2.35686950148192        3.28294637661274       -1.43342369848444
     N           -2.19832755069994        2.26216669975350       -0.56079196390356
     N           -1.25193534391873        2.55584852856711        0.34692235667748
     C           -3.16589295827665        3.35105235552600       -2.69533910135010
     C           -3.17218636101917        2.03955060268840       -3.48093180866260
     C           -4.57827081591484        3.89775013678435       -2.46076807185427
     Pt          -0.30305577737566        0.73623554983758        0.93966738878395
     H            3.16861894322067        3.39975689790216        3.95021935074514
     H            5.30644085643694        1.53366404669444        1.61425639447901
     H            4.97416638532304        0.23942590833492        2.76151103442673
     H            5.39570970076012        1.85806903222415        3.35340597569246
     H           -0.68668132320456        2.85796252421104        2.99166721484141
     H            0.28840363634205        4.32701244972458        3.22832160202468
     H            0.13763664388999        3.15223794515257        4.53291586329297
     H            4.87084088351642       -1.52182162986727        0.60294152409571
     H            6.32417390622670       -1.34850549191640       -1.35171340089706
     H            3.88347904773833        1.79589799516728       -2.86372023386161
     H            3.50266000774595       -2.51242926587231        1.79286877391385
     H            2.10072018094380       -4.53666860625140        1.93299407321260
     H           -0.27819138417201       -4.40943272410856        1.48135913941157
     H            2.21042011099930        2.68455050907959       -0.24680395419780
     H            1.83769133774984        2.28688525203518       -1.92213758673033
     H            1.15750951623607        1.28529837784768       -0.61084506228836
     H            5.88514072428257        1.25859780375818       -4.01627290212657
     H            7.15485105152272        0.39576676484384       -3.13599990079815
     H            5.98200059313642       -0.50266317920003       -4.09196420184973
     H           -4.79088652009912        1.53260530868056       -0.98461097167737
     H           -5.66859844303016       -0.73565672640956       -0.61587608377518
     H           -4.24011110997909       -2.49721409847527        0.23737377427104
     H           -2.71173475239282       -3.17838300551720        3.12329526910389
     H           -3.26782396745805       -6.34302857166092       -0.60755399924266
     H           -3.87602375949639       -5.33473239784640        3.49603058195479
     H           -4.14815001677178       -6.91280122199481        1.61472354320992
     H           -0.89286055173683       -3.82840739248204       -1.28392837170756
     H           -2.06556928674759       -4.90976759568584       -2.05749149696574
     H           -2.47047961215698       -3.21289806685752       -1.75456698091762
     H           -0.05572951528578        4.24238848780528        0.68094675740293
     H           -1.34052481405942        5.23386912611354       -1.49475164080750
     H           -2.64639913998117        4.09522309234911       -3.31346014878709
     H           -2.15490799999031        1.67635881658968       -3.61220640026591
     H           -3.74608778948628        1.26751065317739       -2.97856868666840
     H           -3.60712240007110        2.20702935019946       -4.46381277247089
     H           -5.18893858569964        3.21220956456676       -1.88118226810071
     H           -4.53004858928124        4.84487937481639       -1.92736500975549
     H           -5.07026550741815        4.06320266659974       -3.41655109737872


