%nprocshared=56
%mem=120GB
%chk=s0_opt.chk
#p opt=calcall TPSSh/def2svp scrf=solvent=CH2Cl2 empiricaldispersion=gd3bj IOp(3/174=1000000,3/175=2238200,3/177=452900,3/178=4655000) nosymm

test2-s0opt

0 1
 Pt                 0.51894564   -0.28830313    0.00000000
 C                  0.51894564    1.77169687    0.00000000
 C                 -0.68918100    2.46921832   -0.01911218
 C                  1.72669758    2.46920248    0.01921746
 C                 -0.68944973    3.86393023   -0.01968721
 C                  1.72658623    3.86434036    0.01964084
 C                  0.51879614    4.56176167    0.00005488
 H                 -1.64165818    4.41379310   -0.03538496
 H                  2.67899277    4.41402536    0.03521069
 H                  0.51833337    5.66144161   -0.00034341
 C                  2.49288847   -0.02760215   -0.04425643
 C                  4.78722471    0.14179954    0.12442171
 H                  5.85568579   -0.05059475    0.19026349
 C                 -1.51527071   -0.00912314    0.00347630
 C                 -3.80830136    0.21993559   -0.09982199
 H                 -4.88256518    0.05516869   -0.14188027
 Cl                 0.51894564   -2.56830313    0.00000000
 C                  3.86527799   -2.29018889   -0.05401666
 H                  3.38739111   -2.71353320    0.80464726
 H                  3.37969771   -2.63979774   -0.94108230
 H                  4.89392773   -2.58428449   -0.07097179
 C                 -2.94274396   -2.23736966   -0.00572064
 H                 -2.46444071   -2.65287869   -0.86797248
 H                 -2.47619523   -2.61765265    0.87893587
 H                 -3.97807262   -2.50754047   -0.00723917
 N                  2.73720086    1.30721286    0.03544281
 N                  3.77146382   -0.75443585    0.01126333
 N                 -2.81252520   -0.70317950   -0.03578105
 N                 -1.72832822    1.33279584   -0.03691683
 C                 -3.21099245    1.60589208   -0.10615851
 C                  4.22366821    1.54159880    0.15010421
 H                 -3.72083911    2.43450209   -0.14557339
 H                  4.75223157    2.35613255    0.22254193

