%nprocshared=56
%mem=120GB
%chk=s1_opt.chk
#p td(singlet,nstate=10) opt=calcall TPSSh/def2svp scrf=solvent=CH2Cl2 empiricaldispersion=gd3bj IOp(3/174=1000000,3/175=2238200,3/177=452900,3/178=4655000) nosymm

test2-s1opt

0  1
Pt          0.48596        -0.41134        -0.01371
C           0.50197         1.53842         0.00327
C          -0.70006         2.24983        -0.00819
C           1.71545         2.22972         0.03112
C          -0.71202         3.64781         0.00748
C           1.74994         3.62732         0.04742
C           0.52449         4.31664         0.03512
H          -1.64389         4.21566        -0.00060
H           2.69077         4.17970         0.06927
H           0.53342         5.40829         0.04774
C           2.50190        -0.02773         0.02128
C           4.74278         0.28489         0.05575
H           5.78563        -0.01723         0.06707
C          -1.52340         0.00572        -0.04252
C          -3.75880         0.35597        -0.07339
H          -4.80649         0.07146        -0.09170
Cl          0.46723        -2.86986        -0.02052
C           3.90088        -2.09011         0.01775
H           4.45482        -2.39675         0.91594
H           2.91050        -2.56367         0.00455
H           4.46939        -2.37760        -0.87773
C          -2.95592        -2.03296        -0.08114
H          -1.97350        -2.52287        -0.06749
H          -3.53748        -2.32753         0.80356
H          -3.50627        -2.31389        -0.98993
N           2.80873         1.32329         0.03937
N           3.70813        -0.64314         0.03178
N          -2.73961        -0.58934        -0.06615
N          -1.80791         1.36169        -0.03477
C          -3.17112         1.58729        -0.05354
C           4.17557         1.52592         0.06062
H          -3.60616         2.58152        -0.05155
H           4.62740         2.51254         0.07714

