%nprocshared=56
%mem=120GB
%chk=t1_opt.chk
p freq TPSSh/def2svp scrf=solvent=CH2Cl2 empiricaldispersion=gd3bj IOp(3/174=1000000,3/175=2238200,3/177=452900,3/178=4655000) nosymm
#
test2-t1freq

0  3
Pt          0.48622        -0.38578        -0.01392
C           0.50165         1.51545         0.00769
C          -0.74967         2.25886        -0.00716
C           1.76502         2.23800         0.03372
C          -0.73968         3.63581         0.00486
C           1.77720         3.61495         0.04578
C           0.52427         4.30083         0.03175
H          -1.65848         4.22382        -0.00537
H           2.70533         4.18778         0.06528
H           0.53319         5.39236         0.04132
C           2.50253        -0.02313         0.02136
C           4.75174         0.28140         0.05905
H           5.79234        -0.02951         0.07132
C          -1.52395         0.01022        -0.04274
C          -3.76791         0.35235        -0.07133
H          -4.81348         0.05891        -0.08895
Cl          0.46776        -2.84823        -0.01895
C           3.90385        -2.08935         0.01588
H           4.45983        -2.40216         0.91149
H           2.91387        -2.56293         0.00531
H           4.46803        -2.38019        -0.88213
C          -2.95863        -2.03241        -0.08326
H          -1.97661        -2.52225        -0.06872
H          -3.54052        -2.33306         0.80001
H          -3.50636        -2.31693        -0.99335
N           2.82779         1.34568         0.04154
N           3.71270        -0.64509         0.03306
N          -2.74415        -0.59142        -0.06588
N          -1.82674         1.38424        -0.03330
C          -3.20171         1.58923        -0.05105
C           4.20600         1.52760         0.06456
H          -3.65059         2.57704        -0.04746
H           4.67148         2.50757         0.08289

